DIMENSION: 100
70
66
26
65
4
97
19
75
56
80
31
92
90
49
6
63
47
1
8
42
89
54
40
64
69
73
68
85
50
44
2
82
95
13
76
33
37
5
52
78
96
39
30
48
100
71
41
14
3
43
46
29
34
83
55
12
7
9
87
25
81
61
58
67
28
93
51
57
20
27
86
35
62
60
77
23
98
91
45
32
11
15
17
59
74
21
72
10
84
36
99
38
24
18
94
88
79
53
16
22
